
 102   30
  10   10   10   10   10   10   10   10   10   10   10   10   10   10   10   10   10   10   10   10   10   10   10   10   10   10   10   10   10   10

   0   0   0   0   0   0   0   0   0   0   0   0   0   0   0   0   0   0   0   0   0   0   0   0   0   0   0   0   0   0   0  29 2 3 4 5 6 7 8 9 10 11 12 13 14 15 17 18 19 20 22 23 24 25 26 27 28 33 38 42 43 
   6   0   0   0   0   0   0   0   0   0   0   0   0   2   0   0   0   0   0   0   0   0   0   0   0   0   0   0   0   0   0  16 99 97 69 64 61 60 56 51 48 45 44 40 37 36 32 31 
   9   0   0   3   0   0   0   0   0   0   0   0   0   0   0   0   0   0   0   0   2   0   3   0   0   0   0   0   0   0   0  19 101 100 98 97 96 69 66 65 63 62 61 60 59 55 53 52 45 39 30 
   1   2   0   0   0   0   0   0   0   0   0   0   1   0   0   1   0   0   0   1   0   0   0   0   0   0   0   1   0   0   0  17 100 98 73 66 65 62 61 60 59 52 51 50 48 47 41 35 29 
  10   0   1   0   0   0   0   2   0   0   0   0   0   3   0   0   0   0   0   0   0   0   0   0   0   0   0  10   0   0   0  11 101 100 96 65 53 50 48 45 36 35 21 
   8   5   0   0   0   0   0   0   0   0   0   0   0   0   0   5   0   0   0   0   0   0   0   1   0   0   0   4   0   0   0  10 101 100 99 74 60 59 53 49 46 16 
   2   0   0   0   0   0   0   5   0   0   0   0   0  10   0   8   0   0   0   0   0   1   0   0   1   0   3   0   0   0   0  14 101 100 99 98 63 61 60 51 50 48 45 44 40 37 
   5   0   0   0   0   0   4   0   2   0   0   0   0   0   0   0   0   0   0   0   0   8   0   7   5   0   4   0   0   0   1  15 101 100 97 96 93 68 66 65 64 62 59 50 36 34 30 
   4   0   0   0   0   0   0   0   0   0   0   0   0   0   0   0   0   0   0   6   0   0   0   0   0   0   6   0   0   0  10  13 99 98 97 96 95 69 64 58 57 53 46 44 36 
  10   0   0   0   1   1   0   0   0   0   0   0   0   0   0   0   0   1   0   0   0   0   0   0   0   0   0   0   0   0   6  10 98 97 73 70 62 50 47 45 37 32 
   6   0   0   0   0   0   0   0   8   0   0   0   0   0   0   0   0   0   0   0   0   0   8   0   0   0   0   0   0   0   0  18 99 98 97 95 94 92 74 72 70 68 63 61 57 55 53 52 48 45 
   2   0   0   0   0   0   0   0   0   0   0   0   0   0   2   0   0   0   0   0   0   0   0   0   0   0   0   0   0   0   0  17 98 97 96 95 94 93 91 90 73 72 65 64 60 59 56 50 36 
  10   0   0   0   0   0   0   0   0   0   0   0   0   7   0   0   0   0   0   7   0   0   0   0   6   0   0   5   0   0   0  15 98 94 92 90 73 72 68 65 64 61 55 53 49 45 36 
   3   4   0   0   0   0   4   0   0   0   0   2   0   0   4   0   0   0   0   3   0   0   0   0   8   0   0   0   0   0   0  14 97 96 74 73 69 66 65 64 61 60 58 57 48 35 
   9   0   0   0   0   0   0   9   5   0   0  10   0   0   0   9   0   0   0   5   0   0   0   0   0   0   0   0   0   2   0  14 100 93 74 73 70 68 61 60 59 58 57 54 48 46 
   6   8   0   0   0   0   0   0   0   0   0   0   0   0   0   0   0   0   0   0   0   0   0   0   0   0   0   8   2   4   2  13 98 96 95 94 91 65 64 63 61 55 48 45 44 
   1   0   0   0   0   0   0   0   0   0   0   0   0   0   3   0   0   0   0   0   0   0   0   0   0   0   0   0   0   0   0  12 96 73 72 65 64 60 59 55 52 47 45 40 
   7   0   3   0   0   0   0  10   0   2   0   0   0   0   0   0   0   0   0   0   0   0   0   0   0   0   0   3   0   0   5  20 100 99 96 95 93 92 88 84 74 73 72 70 68 65 63 62 61 56 52 48 
   2   0   0   0   0   0   0   0   0   0   0   0   0   0   0   0   0   0   0   0   0   0   0   0   0   0   0   3   0   0   9  19 100 97 96 95 93 89 88 86 74 73 72 70 69 68 63 59 53 51 48 
   5   0   0   0   0   0   0   0   5   0   2   7   4   0   0   0   0   0   1  10   0   5   0   0   0   0   0   0   0   0   0  19 101 99 97 96 95 92 91 89 88 72 70 65 63 59 57 55 52 50 48 
   8   0   0   0   0  10   0   0   0   9   0   4   0   0   0   0   0   0   0   0   0   0   0   0   0   0   0   0   0   0   0  15 98 95 94 91 88 85 70 67 66 63 62 60 59 55 44 
   4   6   0   0   0   0   4   0   0   0   0   0   7   0   9   0   1   0   0   0   6   0   0   0   5   0   0   0   0   6   0  17 94 93 91 89 88 74 72 70 69 68 65 63 52 51 50 49 48 
   6   0   4   0   9   0   0   0   0   0   0   6   0   7   8   9   8   0   0   0   0   0   0   0   0   0   0   0   0   0   0  15 99 98 97 95 88 74 73 70 68 63 59 55 53 50 48 
   9   0   0   0   0   0   6   0   0   0   0   0   7   0   5   0   0   0   0   0   0   0   0   4   0   0   5   7   0   0   0  16 99 96 93 92 91 89 88 86 85 77 72 71 65 64 62 50 
   7   0   0   3   0   0   0   0   0   0   0   0   0   8   0   0   0   0   0   0  10   0   0   9   8   0   0   0   0   0   7  12 98 97 94 91 90 84 72 70 65 63 60 45 
   2   0   0   0   0   0   0   0   0   0   0   0   0   0   0   0   0   0   0   0   0   0   0   0   0   1   0  10   0   0   0  11 98 97 96 94 93 87 83 78 60 53 45 
   6   0   0   0   0   0   0   0   0   7   0   0   0   0   0   0   0   0   0   0   0   0   0   0   0   5   0   0   0   0   0  17 96 95 93 91 90 89 88 87 86 85 84 81 74 73 70 69 58 
   6   0   0   0   0  10   0   0   0   0   4   0   0   0   0  10   7   0   0   8   0   0   0   0   0   0   0   0   0   0   0  12 100 95 90 88 81 73 71 65 64 58 52 50 
   5   0   0   0   0   0   0   0   7   0   0   0   0   0   0   0   0   0   0   0   0   0   0   0   0   0   0   0   0   0   0  14 101 95 94 93 92 91 88 86 84 72 71 64 58 56 
   6   0   0   0   0   0   0   0   0   0   0   0   0   0   0   0   7   7   0   0   0   0   4   0   0   0   0   4   0   5   7   8 99 92 87 80 79 72 71 40 
   7   0   0   0   0   7   7   0   0   0   0   0   1   0   0   0   0   0   0   0   0   0   0   0   0   0   4   0   0   0   0  11 98 94 92 88 87 86 78 65 62 59 53 
   9   0   0   0   0   0   0   0   0   6   0   0   0   0   0   0   0   0   0   0   0   0   0   0   0   0   5   0   0   4   0  12 93 92 90 89 87 85 81 77 68 66 65 53 
   7   0   6   0   8   0   0   0   6   0   0   0   6   0   0   0   0   0   0   0   0   0   0   0   0   0   0   0   5   0   0  12 96 93 92 91 90 88 86 82 72 64 59 56 
   8   0   0   0   0   0   0   5   0  10   0   0   7   9   0   0   0   0   0   0   4   0   0   0   6   0   0   0   0   0   0  10 86 84 83 81 79 73 70 67 63 48 
   8   0   0   0   0   0   0   0   4   0   0   0   2   3   0   0   0   0   0   2   0   0   9   0   0   0   0   0   0   0   0  12 93 91 88 86 85 84 80 77 70 68 67 63 
   1   0   0   0   0   0   0   0   0   0   4   0   0   0   0   0   0   0  10   4   0   0   6   0   0   0   5   0   0   0   0  10 89 88 87 83 79 74 70 67 63 52 
   9   0   6   0   0   0   0   0   0   0   0   0   0   0   0   0   0   0   0   0   0   0   3   4   0   6   7   0   0   0   0   8 96 94 89 85 84 65 59 55 
   5   0   5   0   0   0   0   9   0   0   5   0   0   0   0   0   0   0   0   0   0   0   0   0   0   0   8   0   4   0   0  11 94 91 89 88 85 84 80 78 73 65 58 
   9   0   0   0   5   4   0   0   0   0   0   0  10   0   0   3   0   0   0   0   0   0   5   0   6   8   0   9  10   0   0  14 95 94 91 88 87 85 84 81 80 79 76 75 73 70 
   8   0   0   8   0   0   0   0   0   0   0   0   0   0   0   0   0   0   0   0   0   0   0   0   0   0   0   0   0   0   0  12 95 91 90 89 86 85 84 83 82 74 70 67 
   3   0   0   0   0   0   0   0   0   0   0   0   0   0   0   0   0   7   0   9   0   0   0   0   0   0   0   0   0   0   0  12 97 92 90 89 86 84 77 76 75 71 70 68 
   4   0   0   6   0   0   0   0   9  10   0   0   0   0   0   0   0   0   5   0   0   0   0   0   4   7   0   0   0   0   0  11 93 89 88 87 86 84 82 81 77 70 67 
   7   0   0   0   0   0   0   7   6   0   0   0   0   0   5   0   0   0   9  10   0   5   0   0   0   0   0   0   0   0   0  10 92 90 87 85 80 78 75 73 72 71 
   5   0  10   0   0   0   0   0   0   0   0   0   0   0   0   0   0   0   0   0   0   0   0   7   0   0   0   0   0   0   0   9 93 92 87 86 80 76 73 72 68 
   6   0   0   0   0   0   0   0  10   0   0   0   0   0   0   0   0   0   0   0   0   0   0   0   0   0   0   5   0   0   0   8 88 86 85 81 80 77 71 58 
   4  10   0   0   0   0   0   0   0   2   0   0   0   0   0   0   0   0   0   0   0   0   0   6   0   0   7   0   0   7   0   5 94 88 72 65 50 
   2   0   9   0   0   0   0   0   0   0   0   0   0   0   7   0   5   0   0   0   0   0   9   0   0   0   0   0   0   0   0   7 91 85 83 81 80 77 67 
   5   0   0   0   0   0   0   0   0   0   0   0   0   0   0   0   0   0   0   0   0   0   0   0   0   0   6   0   0   0   6   7 90 87 85 80 78 77 75 
   8   0   0   0   0   0   6   6   0   0   0   0   0   0   0   0   0   0   0   0   0   0   0   0   0   0   0   0   0   6   0   7 87 84 79 78 77 76 75 
   1   0   7   0   0   0   0   0   0   0   0   0   0   0   0   0   0   0   0   6   0   0   0   0   0   0  10   0   0   0   0   5 84 83 80 79 67 
   2   0   0   0   0   0   0   0   0   0   0   0   0   0   0   0   0   0   0   7   0   0   0   0   0   7   0   0   0   0   0   5 85 81 80 78 67 
   7   4   0   5   0   0   0   0   0   0   0   0   0   0   0   0   0   0   0   0   0   0   0   0   0   4   0   0   0   0   0   6 86 85 80 78 77 75 
   5   0   0   0   0   0   0   0   6   0   0   6   0   0   3   0   0   0   0   0   0   6   4   0   0   0   0   0   0   0   0   5 91 84 80 75 71 
   7   0   0   0   0   0   0   0   0   0   6   0   0   0   0   0   0   0   0   0   0   0   0   0   0   0   0   0   0   0   0   4 97 88 80 67 
   7   4   4   0   0   0   0   0   0   0   6   0   0   0   0   2   0   0   0   7   0   0   2  10   0   0   0   0   0   0   0   5 93 82 80 78 75 
   7   0   0   0   0   0   7   0   0   0   0   0   9   0   0   7   0   0   0   0   0   4   0   0   0   0   0   0   0   0   0   5 89 83 81 79 76 
   8   0   8   5   0   0   0   0   0   0   0   0   0   0   0   0   0   8   0   0   0   0   0   0   0   0   0   6   0   0   0   5 90 84 77 76 75 
   4   0   0   0   0   0   0   0   0   0   0   0   0   0   0   0   6   0   0   0   0   0   0   0   0   0   0   0   0   0   0   3 82 79 67 
   3   0   0   0   0   0   6   0   0   0   0   0   0   0   0   0   0   0   0   0   0   0   0   0   0   9   0   0   0   0   0   4 81 79 77 75 
   5   0   0   0   0   0   0   0   0   0   0   0   0   9   0   0   0   0   0   0   0   8   0   0   0   0   0   0   0   0   0   4 92 89 81 79 
   8   0   0   0   0   0   0   0   0   0   0   0   0   0   0   0   0   0   0   0   0   8   0   0   8   0   0   0   0   0   0   4 89 86 77 76 
   3   0   0   0   0   0   0   2   0   0   0   0   0   0   9   0   0   0   0   0   0   0   0   0   0   0   0   0   0   5   0   4 90 81 79 75 
   9   9   0   0   0   0   0   0   0   0   0   0   0   0   0   0   0   0   0   0   9   0   0   0   0   0   0   0   0   0   0   3 78 75 71 
   3   8   0   0   0   4   0   0   0   0   0   0   7   7   0   0   0   0   0   0   0   0   0   0   0   0   5   0   0   0   0   3 87 75 70 
   4   0   7   0   0   0   0   3   0   0   0   0   0   0   0   0   0   0   0   0   0   0   0   0   0   0   0   0   0   0   0   2 83 67 
   2   0   0   0   0   0   0   0   9   0   0   0   0   0   0   0   0   0   0   5   0   0   0   0   0   0   0   0   0   0   0   3 84 78 75 
   2   0   0   0   0   0   0   0   0   0   0   0   0   0   0   4   0   0   0   0   3   0   0   0   0   0   0   0   0   3   0   2 76 75 
  10   0   0   0   0   0   0   0   0   0   0   0   0   0   0   0   7   0   0   0   8   8   0   0   0   8   0   0   0   0   0   2 83 79 
   2   0   0   0   9   0   0   0   0   0   0   6   0   0   0   0   0   7   0   0   0   0   0   0   0   0   0   0   0   8   0   2 92 80 
   6   0   0   0   0   0   0   8   0   0   0  10   0   6   0   0   0   0   0   0   9   0   0   0   0   0   0   0   0   7   0   1 78 
  10   0   0   0   0   0   0   0   0   0   0   0   4   0   0   0   0   6   0   0   0   0   0   0   0   0   0   0   0   0   0   1 82 
   9   0   0   0   0   0   0   0   0   0   0   0   8   7  10   0   0   0   0   0   0   0   0   0   0   0  10   0   0   0   0   1 81 
  10   0   6   0   0   0   0   0   0   0   0   5   0   0   0  10   0   0   0   0   0   0   0   0   0   0   0   0   0   0   0   1 77 
   7   0   7   7   0   0   0   0   0   0   0   0  10   0   0   6   0   0   0   0   0   7   8   4   0   0   6   0   0   0   0   1 77 
   4   0   0   0   0   0   0   0   4   0   0   0   0   6   0   0   0   0   6   6   0   9   0   0   4   0   0   0   0   0   0   1 102
   2   0   0   0   0   0   0   0   0   0   0   0   0   0   0   0   0   0   0   0   0   0   0   4   0   0   0   0   0   4   0   1 102
   6   0   0   0   0   0   0   0   0   0   0   0   0   0   0   0   0   0   0   8   0   0   0   0   0   0   0   8   0   0   0   1 102
   4   7   6   0   0   0   5   0   0   0   0   0   0   0   6   6   0   0   0   0   0   4   0   0   0   0   0   0   7   0   0   1 102
   4   0   0   0   0   0   0   0   4   4   0   0   0   0   0   0   0   0   0   0   0   0   0  10   0   0   0   0   0   9   6   1 102
   2   0   0   0   0   0   0   0   0   0   0   0   0   0   0   4   5   0   0   0   0   0   0   6   0   0   0   4   0   0   0   1 102
   9   0   0   0   0   0   0   0   0   0   0   0   0   0   0   0   0   0   0   6   0   0   0   0   0   0   0   0   0   0   0   1 102
   8   0   0   0   0   0   0   0   0   0   0   0   0   0   0   4   0   0   0   0   0   0   0   0   0   0   0   0   0   0   0   1 102
   9   8   0   0   0   0   0   0   0   0   6   0   0   0   0   4   0   0   0   0   0   0   0   0   0   0   5   0   0   0   0   1 102
   9   0   0   0   0   0   0   0   0   4   0   0   0   0   6   0   0   0   0   0   0   0   0   0   0   0   0   0   0   7   0   1 102
   3   0   0  10   0   0   0   0   0   0   0   0   0   5   0   0   0   0   0   0   0   0   0   0  10   0   0   0   0   0   0   1 102
   2   0   0   0   0   0   0   0   0   0   0   0   0   0   6   0   6   0   0   5   0   0   0   0   0   5   0   0   8   8   0   1 102
   1   0   0   0   0   0   7   4   0   0   0   0   0   0   0   0   0   0   0   0   0   5  10   0   0   0   0   0   0   7   0   1 102
   6   0   0   0   0   0  10  10   0   0   0   0   0   0   0   0   0   0   0  10   0   0   0   0   0   0   0   0   0   0   0   1 102
   3   0   0   0   6   0   0   0   0   0   7   0   0   7   0   0   0   0   0   0   7   0   6   0   0   0   0   7   0  10   0   1 102
   7   0   0   0   0   0   6   0   0   0   0   5   0   0   0   0   0   0   0   0   0   0   0   0   0   0   0   0   0   8   0   1 102
   4   0   0   0   0   0   0   6   0   5   0   0   0   0   0   0   0   0   0   0   0   0   0   0   0   0   0   0   0   0   0   1 102
   7   4   0   7   0   0   0   0   6   0   0   0   0   0   8   0   0   0   0   5   0   0   0   0   0   0   0   0   0   0   0   1 102
   9   5   0   0   0   0   0   6   0   0   0   0   0   0   0   0   0   0   0   0   0   0   0   0   0   0   0   0   0   0   0   1 102
   3   0   0   0   3   0   0   0   0   0   0   0   0   0   5   0   8   0   0   0   0   0   0   0   0   0   0   7   0   0   7   1 102
   4   0   0   0   0   0   0   4   0   4   0   0   0   4   0   0   0   0   5   0   0   0   0   0   0   0   0   0   6   0   0   1 102
   6   0   0   0   0   0   0   0   0   0   4   5   0   0   0   6   0   0   0   0   3   0   0   0   0   0   0   0   0   0   0   1 102
   3   0   0   0   0   0   0   0   0   0   9   0   0   0   0   0   0   0   0   0   0   0   0   0   0   0   0   0   0   0   0   1 102
   7   0   0   0   0   0   0   0   0   6   0   0   0   4   0   0   0   0   0   0   0   0   0   0   0   0   0   7   0   0   0   1 102
   2   0   7   0   6   0   0   0   5   0  10   0   0   4   0   0   0   0   0   2   0   0   0   0   0   0   0   0   0   4   0   1 102
  10   0   0   0   0   0   0   0   0   9   9   0   7   0   0   0   0   0   0   0   5   0   0   0   0   0   0   0   0   0   0   1 102
   9   0   0   0   7   0   0   0   0   0   0   0   0   0   0  10   6   0   0   0   0   0   7   0   7   0   0   0   0   0   0   1 102
   0   0   0   0   0   0   0   0   0   0   0   0   0   0   0   0   0   0   0   0   0   0   0   0   0   0   0   0   0   0   0   0 
